(set-option :produce-models true)
(set-logic QF_LRA)
(set-info :notes | Strip-packing problem.|)
(declare-fun x0 () Real)
(declare-fun y0 () Real)
(declare-fun x1 () Real)
(declare-fun y1 () Real)
(declare-fun x2 () Real)
(declare-fun y2 () Real)
(declare-fun x3 () Real)
(declare-fun y3 () Real)
(declare-fun x4 () Real)
(declare-fun y4 () Real)
(declare-fun x5 () Real)
(declare-fun y5 () Real)
(declare-fun x6 () Real)
(declare-fun y6 () Real)
(declare-fun x7 () Real)
(declare-fun y7 () Real)
(declare-fun x8 () Real)
(declare-fun y8 () Real)
(declare-fun x9 () Real)
(declare-fun y9 () Real)
(declare-fun x10 () Real)
(declare-fun y10 () Real)
(declare-fun x11 () Real)
(declare-fun y11 () Real)
(declare-fun x12 () Real)
(declare-fun y12 () Real)
(declare-fun x13 () Real)
(declare-fun y13 () Real)
(declare-fun x14 () Real)
(declare-fun y14 () Real)
(declare-fun z () Real)
(declare-fun c () Real)
(assert (and (= c z) (and (>= x0 0) 
(and (>= y0 0) 
(and (>= x1 0) 
(and (>= y1 0) 
(and (>= x2 0) 
(and (>= y2 0) 
(and (>= x3 0) 
(and (>= y3 0) 
(and (>= x4 0) 
(and (>= y4 0) 
(and (>= x5 0) 
(and (>= y5 0) 
(and (>= x6 0) 
(and (>= y6 0) 
(and (>= x7 0) 
(and (>= y7 0) 
(and (>= x8 0) 
(and (>= y8 0) 
(and (>= x9 0) 
(and (>= y9 0) 
(and (>= x10 0) 
(and (>= y10 0) 
(and (>= x11 0) 
(and (>= y11 0) 
(and (>= x12 0) 
(and (>= y12 0) 
(and (>= x13 0) 
(and (>= y13 0) 
(and (>= x14 0) 
(and (>= y14 0) 
(and (>= z 0) 
(and (>= c 0) 
(and (<= (+ x0 0.1199492486) z) 
(and (<= 0.9132817474 y0) 
(and (<= y0 1.9364916731) 
(and (<= x0 (- 3.5424310847 0.1199492486)) 
(and (>= x0 0) 
(and (<= (+ x1 0.7639519103) z) 
(and (<= 0.8968339658 y1) 
(and (<= y1 1.9364916731) 
(and (<= x1 (- 3.5424310847 0.7639519103)) 
(and (>= x1 0) 
(and (<= (+ x2 0.8273354707) z) 
(and (<= 0.8938167076 y2) 
(and (<= y2 1.9364916731) 
(and (<= x2 (- 3.5424310847 0.8273354707)) 
(and (>= x2 0) 
(and (<= (+ x3 0.6039417574) z) 
(and (<= 0.8450277292 y3) 
(and (<= y3 1.9364916731) 
(and (<= x3 (- 3.5424310847 0.6039417574)) 
(and (>= x3 0) 
(and (<= (+ x4 0.4940462243) z) 
(and (<= 0.8222098258 y4) 
(and (<= y4 1.9364916731) 
(and (<= x4 (- 3.5424310847 0.4940462243)) 
(and (>= x4 0) 
(and (<= (+ x5 0.1995521615) z) 
(and (<= 0.806564382 y5) 
(and (<= y5 1.9364916731) 
(and (<= x5 (- 3.5424310847 0.1995521615)) 
(and (>= x5 0) 
(and (<= (+ x6 0.2348373975) z) 
(and (<= 0.7780718243 y6) 
(and (<= y6 1.9364916731) 
(and (<= x6 (- 3.5424310847 0.2348373975)) 
(and (>= x6 0) 
(and (<= (+ x7 0.4633199918) z) 
(and (<= 0.7233173566 y7) 
(and (<= y7 1.9364916731) 
(and (<= x7 (- 3.5424310847 0.4633199918)) 
(and (>= x7 0) 
(and (<= (+ x8 0.9334849043) z) 
(and (<= 0.5984089855 y8) 
(and (<= y8 1.9364916731) 
(and (<= x8 (- 3.5424310847 0.9334849043)) 
(and (>= x8 0) 
(and (<= (+ x9 0.6901500427) z) 
(and (<= 0.3730243976 y9) 
(and (<= y9 1.9364916731) 
(and (<= x9 (- 3.5424310847 0.6901500427)) 
(and (>= x9 0) 
(and (<= (+ x10 0.3941481163) z) 
(and (<= 0.3282985435 y10) 
(and (<= y10 1.9364916731) 
(and (<= x10 (- 3.5424310847 0.3941481163)) 
(and (>= x10 0) 
(and (<= (+ x11 0.0820449569) z) 
(and (<= 0.1995476485 y11) 
(and (<= y11 1.9364916731) 
(and (<= x11 (- 3.5424310847 0.0820449569)) 
(and (>= x11 0) 
(and (<= (+ x12 0.1710799512) z) 
(and (<= 0.1933476533 y12) 
(and (<= y12 1.9364916731) 
(and (<= x12 (- 3.5424310847 0.1710799512)) 
(and (>= x12 0) 
(and (<= (+ x13 0.2681052911) z) 
(and (<= 0.145351642 y13) 
(and (<= y13 1.9364916731) 
(and (<= x13 (- 3.5424310847 0.2681052911)) 
(and (>= x13 0) 
(and (<= (+ x14 0.7855995674) z) 
(and (<= 0.0725243686 y14) 
(and (<= y14 1.9364916731) 
(and (<= x14 (- 3.5424310847 0.7855995674)) 
(and (>= x14 0) 
(and (<= c 3.5424310847) 
(and (or (<= (+ x0 0.1199492486) x1) (or (<= (+ x1 0.7639519103) x0) (or (>= (- y0 0.9132817474) y1) (or (>= (- y1 0.8968339658) y0))))) 
(and (or (<= (+ x0 0.1199492486) x2) (or (<= (+ x2 0.8273354707) x0) (or (>= (- y0 0.9132817474) y2) (or (>= (- y2 0.8938167076) y0))))) 
(and (or (<= (+ x0 0.1199492486) x3) (or (<= (+ x3 0.6039417574) x0) (or (>= (- y0 0.9132817474) y3) (or (>= (- y3 0.8450277292) y0))))) 
(and (or (<= (+ x0 0.1199492486) x4) (or (<= (+ x4 0.4940462243) x0) (or (>= (- y0 0.9132817474) y4) (or (>= (- y4 0.8222098258) y0))))) 
(and (or (<= (+ x0 0.1199492486) x5) (or (<= (+ x5 0.1995521615) x0) (or (>= (- y0 0.9132817474) y5) (or (>= (- y5 0.806564382) y0))))) 
(and (or (<= (+ x0 0.1199492486) x6) (or (<= (+ x6 0.2348373975) x0) (or (>= (- y0 0.9132817474) y6) (or (>= (- y6 0.7780718243) y0))))) 
(and (or (<= (+ x0 0.1199492486) x7) (or (<= (+ x7 0.4633199918) x0) (or (>= (- y0 0.9132817474) y7) (or (>= (- y7 0.7233173566) y0))))) 
(and (or (<= (+ x0 0.1199492486) x8) (or (<= (+ x8 0.9334849043) x0) (or (>= (- y0 0.9132817474) y8) (or (>= (- y8 0.5984089855) y0))))) 
(and (or (<= (+ x0 0.1199492486) x9) (or (<= (+ x9 0.6901500427) x0) (or (>= (- y0 0.9132817474) y9) (or (>= (- y9 0.3730243976) y0))))) 
(and (or (<= (+ x0 0.1199492486) x10) (or (<= (+ x10 0.3941481163) x0) (or (>= (- y0 0.9132817474) y10) (or (>= (- y10 0.3282985435) y0))))) 
(and (or (<= (+ x0 0.1199492486) x11) (or (<= (+ x11 0.0820449569) x0) (or (>= (- y0 0.9132817474) y11) (or (>= (- y11 0.1995476485) y0))))) 
(and (or (<= (+ x0 0.1199492486) x12) (or (<= (+ x12 0.1710799512) x0) (or (>= (- y0 0.9132817474) y12) (or (>= (- y12 0.1933476533) y0))))) 
(and (or (<= (+ x0 0.1199492486) x13) (or (<= (+ x13 0.2681052911) x0) (or (>= (- y0 0.9132817474) y13) (or (>= (- y13 0.145351642) y0))))) 
(and (or (<= (+ x0 0.1199492486) x14) (or (<= (+ x14 0.7855995674) x0) (or (>= (- y0 0.9132817474) y14) (or (>= (- y14 0.0725243686) y0))))) 
(and (or (<= (+ x1 0.7639519103) x2) (or (<= (+ x2 0.8273354707) x1) (or (>= (- y1 0.8968339658) y2) (or (>= (- y2 0.8938167076) y1))))) 
(and (or (<= (+ x1 0.7639519103) x3) (or (<= (+ x3 0.6039417574) x1) (or (>= (- y1 0.8968339658) y3) (or (>= (- y3 0.8450277292) y1))))) 
(and (or (<= (+ x1 0.7639519103) x4) (or (<= (+ x4 0.4940462243) x1) (or (>= (- y1 0.8968339658) y4) (or (>= (- y4 0.8222098258) y1))))) 
(and (or (<= (+ x1 0.7639519103) x5) (or (<= (+ x5 0.1995521615) x1) (or (>= (- y1 0.8968339658) y5) (or (>= (- y5 0.806564382) y1))))) 
(and (or (<= (+ x1 0.7639519103) x6) (or (<= (+ x6 0.2348373975) x1) (or (>= (- y1 0.8968339658) y6) (or (>= (- y6 0.7780718243) y1))))) 
(and (or (<= (+ x1 0.7639519103) x7) (or (<= (+ x7 0.4633199918) x1) (or (>= (- y1 0.8968339658) y7) (or (>= (- y7 0.7233173566) y1))))) 
(and (or (<= (+ x1 0.7639519103) x8) (or (<= (+ x8 0.9334849043) x1) (or (>= (- y1 0.8968339658) y8) (or (>= (- y8 0.5984089855) y1))))) 
(and (or (<= (+ x1 0.7639519103) x9) (or (<= (+ x9 0.6901500427) x1) (or (>= (- y1 0.8968339658) y9) (or (>= (- y9 0.3730243976) y1))))) 
(and (or (<= (+ x1 0.7639519103) x10) (or (<= (+ x10 0.3941481163) x1) (or (>= (- y1 0.8968339658) y10) (or (>= (- y10 0.3282985435) y1))))) 
(and (or (<= (+ x1 0.7639519103) x11) (or (<= (+ x11 0.0820449569) x1) (or (>= (- y1 0.8968339658) y11) (or (>= (- y11 0.1995476485) y1))))) 
(and (or (<= (+ x1 0.7639519103) x12) (or (<= (+ x12 0.1710799512) x1) (or (>= (- y1 0.8968339658) y12) (or (>= (- y12 0.1933476533) y1))))) 
(and (or (<= (+ x1 0.7639519103) x13) (or (<= (+ x13 0.2681052911) x1) (or (>= (- y1 0.8968339658) y13) (or (>= (- y13 0.145351642) y1))))) 
(and (or (<= (+ x1 0.7639519103) x14) (or (<= (+ x14 0.7855995674) x1) (or (>= (- y1 0.8968339658) y14) (or (>= (- y14 0.0725243686) y1))))) 
(and (or (<= (+ x2 0.8273354707) x3) (or (<= (+ x3 0.6039417574) x2) (or (>= (- y2 0.8938167076) y3) (or (>= (- y3 0.8450277292) y2))))) 
(and (or (<= (+ x2 0.8273354707) x4) (or (<= (+ x4 0.4940462243) x2) (or (>= (- y2 0.8938167076) y4) (or (>= (- y4 0.8222098258) y2))))) 
(and (or (<= (+ x2 0.8273354707) x5) (or (<= (+ x5 0.1995521615) x2) (or (>= (- y2 0.8938167076) y5) (or (>= (- y5 0.806564382) y2))))) 
(and (or (<= (+ x2 0.8273354707) x6) (or (<= (+ x6 0.2348373975) x2) (or (>= (- y2 0.8938167076) y6) (or (>= (- y6 0.7780718243) y2))))) 
(and (or (<= (+ x2 0.8273354707) x7) (or (<= (+ x7 0.4633199918) x2) (or (>= (- y2 0.8938167076) y7) (or (>= (- y7 0.7233173566) y2))))) 
(and (or (<= (+ x2 0.8273354707) x8) (or (<= (+ x8 0.9334849043) x2) (or (>= (- y2 0.8938167076) y8) (or (>= (- y8 0.5984089855) y2))))) 
(and (or (<= (+ x2 0.8273354707) x9) (or (<= (+ x9 0.6901500427) x2) (or (>= (- y2 0.8938167076) y9) (or (>= (- y9 0.3730243976) y2))))) 
(and (or (<= (+ x2 0.8273354707) x10) (or (<= (+ x10 0.3941481163) x2) (or (>= (- y2 0.8938167076) y10) (or (>= (- y10 0.3282985435) y2))))) 
(and (or (<= (+ x2 0.8273354707) x11) (or (<= (+ x11 0.0820449569) x2) (or (>= (- y2 0.8938167076) y11) (or (>= (- y11 0.1995476485) y2))))) 
(and (or (<= (+ x2 0.8273354707) x12) (or (<= (+ x12 0.1710799512) x2) (or (>= (- y2 0.8938167076) y12) (or (>= (- y12 0.1933476533) y2))))) 
(and (or (<= (+ x2 0.8273354707) x13) (or (<= (+ x13 0.2681052911) x2) (or (>= (- y2 0.8938167076) y13) (or (>= (- y13 0.145351642) y2))))) 
(and (or (<= (+ x2 0.8273354707) x14) (or (<= (+ x14 0.7855995674) x2) (or (>= (- y2 0.8938167076) y14) (or (>= (- y14 0.0725243686) y2))))) 
(and (or (<= (+ x3 0.6039417574) x4) (or (<= (+ x4 0.4940462243) x3) (or (>= (- y3 0.8450277292) y4) (or (>= (- y4 0.8222098258) y3))))) 
(and (or (<= (+ x3 0.6039417574) x5) (or (<= (+ x5 0.1995521615) x3) (or (>= (- y3 0.8450277292) y5) (or (>= (- y5 0.806564382) y3))))) 
(and (or (<= (+ x3 0.6039417574) x6) (or (<= (+ x6 0.2348373975) x3) (or (>= (- y3 0.8450277292) y6) (or (>= (- y6 0.7780718243) y3))))) 
(and (or (<= (+ x3 0.6039417574) x7) (or (<= (+ x7 0.4633199918) x3) (or (>= (- y3 0.8450277292) y7) (or (>= (- y7 0.7233173566) y3))))) 
(and (or (<= (+ x3 0.6039417574) x8) (or (<= (+ x8 0.9334849043) x3) (or (>= (- y3 0.8450277292) y8) (or (>= (- y8 0.5984089855) y3))))) 
(and (or (<= (+ x3 0.6039417574) x9) (or (<= (+ x9 0.6901500427) x3) (or (>= (- y3 0.8450277292) y9) (or (>= (- y9 0.3730243976) y3))))) 
(and (or (<= (+ x3 0.6039417574) x10) (or (<= (+ x10 0.3941481163) x3) (or (>= (- y3 0.8450277292) y10) (or (>= (- y10 0.3282985435) y3))))) 
(and (or (<= (+ x3 0.6039417574) x11) (or (<= (+ x11 0.0820449569) x3) (or (>= (- y3 0.8450277292) y11) (or (>= (- y11 0.1995476485) y3))))) 
(and (or (<= (+ x3 0.6039417574) x12) (or (<= (+ x12 0.1710799512) x3) (or (>= (- y3 0.8450277292) y12) (or (>= (- y12 0.1933476533) y3))))) 
(and (or (<= (+ x3 0.6039417574) x13) (or (<= (+ x13 0.2681052911) x3) (or (>= (- y3 0.8450277292) y13) (or (>= (- y13 0.145351642) y3))))) 
(and (or (<= (+ x3 0.6039417574) x14) (or (<= (+ x14 0.7855995674) x3) (or (>= (- y3 0.8450277292) y14) (or (>= (- y14 0.0725243686) y3))))) 
(and (or (<= (+ x4 0.4940462243) x5) (or (<= (+ x5 0.1995521615) x4) (or (>= (- y4 0.8222098258) y5) (or (>= (- y5 0.806564382) y4))))) 
(and (or (<= (+ x4 0.4940462243) x6) (or (<= (+ x6 0.2348373975) x4) (or (>= (- y4 0.8222098258) y6) (or (>= (- y6 0.7780718243) y4))))) 
(and (or (<= (+ x4 0.4940462243) x7) (or (<= (+ x7 0.4633199918) x4) (or (>= (- y4 0.8222098258) y7) (or (>= (- y7 0.7233173566) y4))))) 
(and (or (<= (+ x4 0.4940462243) x8) (or (<= (+ x8 0.9334849043) x4) (or (>= (- y4 0.8222098258) y8) (or (>= (- y8 0.5984089855) y4))))) 
(and (or (<= (+ x4 0.4940462243) x9) (or (<= (+ x9 0.6901500427) x4) (or (>= (- y4 0.8222098258) y9) (or (>= (- y9 0.3730243976) y4))))) 
(and (or (<= (+ x4 0.4940462243) x10) (or (<= (+ x10 0.3941481163) x4) (or (>= (- y4 0.8222098258) y10) (or (>= (- y10 0.3282985435) y4))))) 
(and (or (<= (+ x4 0.4940462243) x11) (or (<= (+ x11 0.0820449569) x4) (or (>= (- y4 0.8222098258) y11) (or (>= (- y11 0.1995476485) y4))))) 
(and (or (<= (+ x4 0.4940462243) x12) (or (<= (+ x12 0.1710799512) x4) (or (>= (- y4 0.8222098258) y12) (or (>= (- y12 0.1933476533) y4))))) 
(and (or (<= (+ x4 0.4940462243) x13) (or (<= (+ x13 0.2681052911) x4) (or (>= (- y4 0.8222098258) y13) (or (>= (- y13 0.145351642) y4))))) 
(and (or (<= (+ x4 0.4940462243) x14) (or (<= (+ x14 0.7855995674) x4) (or (>= (- y4 0.8222098258) y14) (or (>= (- y14 0.0725243686) y4))))) 
(and (or (<= (+ x5 0.1995521615) x6) (or (<= (+ x6 0.2348373975) x5) (or (>= (- y5 0.806564382) y6) (or (>= (- y6 0.7780718243) y5))))) 
(and (or (<= (+ x5 0.1995521615) x7) (or (<= (+ x7 0.4633199918) x5) (or (>= (- y5 0.806564382) y7) (or (>= (- y7 0.7233173566) y5))))) 
(and (or (<= (+ x5 0.1995521615) x8) (or (<= (+ x8 0.9334849043) x5) (or (>= (- y5 0.806564382) y8) (or (>= (- y8 0.5984089855) y5))))) 
(and (or (<= (+ x5 0.1995521615) x9) (or (<= (+ x9 0.6901500427) x5) (or (>= (- y5 0.806564382) y9) (or (>= (- y9 0.3730243976) y5))))) 
(and (or (<= (+ x5 0.1995521615) x10) (or (<= (+ x10 0.3941481163) x5) (or (>= (- y5 0.806564382) y10) (or (>= (- y10 0.3282985435) y5))))) 
(and (or (<= (+ x5 0.1995521615) x11) (or (<= (+ x11 0.0820449569) x5) (or (>= (- y5 0.806564382) y11) (or (>= (- y11 0.1995476485) y5))))) 
(and (or (<= (+ x5 0.1995521615) x12) (or (<= (+ x12 0.1710799512) x5) (or (>= (- y5 0.806564382) y12) (or (>= (- y12 0.1933476533) y5))))) 
(and (or (<= (+ x5 0.1995521615) x13) (or (<= (+ x13 0.2681052911) x5) (or (>= (- y5 0.806564382) y13) (or (>= (- y13 0.145351642) y5))))) 
(and (or (<= (+ x5 0.1995521615) x14) (or (<= (+ x14 0.7855995674) x5) (or (>= (- y5 0.806564382) y14) (or (>= (- y14 0.0725243686) y5))))) 
(and (or (<= (+ x6 0.2348373975) x7) (or (<= (+ x7 0.4633199918) x6) (or (>= (- y6 0.7780718243) y7) (or (>= (- y7 0.7233173566) y6))))) 
(and (or (<= (+ x6 0.2348373975) x8) (or (<= (+ x8 0.9334849043) x6) (or (>= (- y6 0.7780718243) y8) (or (>= (- y8 0.5984089855) y6))))) 
(and (or (<= (+ x6 0.2348373975) x9) (or (<= (+ x9 0.6901500427) x6) (or (>= (- y6 0.7780718243) y9) (or (>= (- y9 0.3730243976) y6))))) 
(and (or (<= (+ x6 0.2348373975) x10) (or (<= (+ x10 0.3941481163) x6) (or (>= (- y6 0.7780718243) y10) (or (>= (- y10 0.3282985435) y6))))) 
(and (or (<= (+ x6 0.2348373975) x11) (or (<= (+ x11 0.0820449569) x6) (or (>= (- y6 0.7780718243) y11) (or (>= (- y11 0.1995476485) y6))))) 
(and (or (<= (+ x6 0.2348373975) x12) (or (<= (+ x12 0.1710799512) x6) (or (>= (- y6 0.7780718243) y12) (or (>= (- y12 0.1933476533) y6))))) 
(and (or (<= (+ x6 0.2348373975) x13) (or (<= (+ x13 0.2681052911) x6) (or (>= (- y6 0.7780718243) y13) (or (>= (- y13 0.145351642) y6))))) 
(and (or (<= (+ x6 0.2348373975) x14) (or (<= (+ x14 0.7855995674) x6) (or (>= (- y6 0.7780718243) y14) (or (>= (- y14 0.0725243686) y6))))) 
(and (or (<= (+ x7 0.4633199918) x8) (or (<= (+ x8 0.9334849043) x7) (or (>= (- y7 0.7233173566) y8) (or (>= (- y8 0.5984089855) y7))))) 
(and (or (<= (+ x7 0.4633199918) x9) (or (<= (+ x9 0.6901500427) x7) (or (>= (- y7 0.7233173566) y9) (or (>= (- y9 0.3730243976) y7))))) 
(and (or (<= (+ x7 0.4633199918) x10) (or (<= (+ x10 0.3941481163) x7) (or (>= (- y7 0.7233173566) y10) (or (>= (- y10 0.3282985435) y7))))) 
(and (or (<= (+ x7 0.4633199918) x11) (or (<= (+ x11 0.0820449569) x7) (or (>= (- y7 0.7233173566) y11) (or (>= (- y11 0.1995476485) y7))))) 
(and (or (<= (+ x7 0.4633199918) x12) (or (<= (+ x12 0.1710799512) x7) (or (>= (- y7 0.7233173566) y12) (or (>= (- y12 0.1933476533) y7))))) 
(and (or (<= (+ x7 0.4633199918) x13) (or (<= (+ x13 0.2681052911) x7) (or (>= (- y7 0.7233173566) y13) (or (>= (- y13 0.145351642) y7))))) 
(and (or (<= (+ x7 0.4633199918) x14) (or (<= (+ x14 0.7855995674) x7) (or (>= (- y7 0.7233173566) y14) (or (>= (- y14 0.0725243686) y7))))) 
(and (or (<= (+ x8 0.9334849043) x9) (or (<= (+ x9 0.6901500427) x8) (or (>= (- y8 0.5984089855) y9) (or (>= (- y9 0.3730243976) y8))))) 
(and (or (<= (+ x8 0.9334849043) x10) (or (<= (+ x10 0.3941481163) x8) (or (>= (- y8 0.5984089855) y10) (or (>= (- y10 0.3282985435) y8))))) 
(and (or (<= (+ x8 0.9334849043) x11) (or (<= (+ x11 0.0820449569) x8) (or (>= (- y8 0.5984089855) y11) (or (>= (- y11 0.1995476485) y8))))) 
(and (or (<= (+ x8 0.9334849043) x12) (or (<= (+ x12 0.1710799512) x8) (or (>= (- y8 0.5984089855) y12) (or (>= (- y12 0.1933476533) y8))))) 
(and (or (<= (+ x8 0.9334849043) x13) (or (<= (+ x13 0.2681052911) x8) (or (>= (- y8 0.5984089855) y13) (or (>= (- y13 0.145351642) y8))))) 
(and (or (<= (+ x8 0.9334849043) x14) (or (<= (+ x14 0.7855995674) x8) (or (>= (- y8 0.5984089855) y14) (or (>= (- y14 0.0725243686) y8))))) 
(and (or (<= (+ x9 0.6901500427) x10) (or (<= (+ x10 0.3941481163) x9) (or (>= (- y9 0.3730243976) y10) (or (>= (- y10 0.3282985435) y9))))) 
(and (or (<= (+ x9 0.6901500427) x11) (or (<= (+ x11 0.0820449569) x9) (or (>= (- y9 0.3730243976) y11) (or (>= (- y11 0.1995476485) y9))))) 
(and (or (<= (+ x9 0.6901500427) x12) (or (<= (+ x12 0.1710799512) x9) (or (>= (- y9 0.3730243976) y12) (or (>= (- y12 0.1933476533) y9))))) 
(and (or (<= (+ x9 0.6901500427) x13) (or (<= (+ x13 0.2681052911) x9) (or (>= (- y9 0.3730243976) y13) (or (>= (- y13 0.145351642) y9))))) 
(and (or (<= (+ x9 0.6901500427) x14) (or (<= (+ x14 0.7855995674) x9) (or (>= (- y9 0.3730243976) y14) (or (>= (- y14 0.0725243686) y9))))) 
(and (or (<= (+ x10 0.3941481163) x11) (or (<= (+ x11 0.0820449569) x10) (or (>= (- y10 0.3282985435) y11) (or (>= (- y11 0.1995476485) y10))))) 
(and (or (<= (+ x10 0.3941481163) x12) (or (<= (+ x12 0.1710799512) x10) (or (>= (- y10 0.3282985435) y12) (or (>= (- y12 0.1933476533) y10))))) 
(and (or (<= (+ x10 0.3941481163) x13) (or (<= (+ x13 0.2681052911) x10) (or (>= (- y10 0.3282985435) y13) (or (>= (- y13 0.145351642) y10))))) 
(and (or (<= (+ x10 0.3941481163) x14) (or (<= (+ x14 0.7855995674) x10) (or (>= (- y10 0.3282985435) y14) (or (>= (- y14 0.0725243686) y10))))) 
(and (or (<= (+ x11 0.0820449569) x12) (or (<= (+ x12 0.1710799512) x11) (or (>= (- y11 0.1995476485) y12) (or (>= (- y12 0.1933476533) y11))))) 
(and (or (<= (+ x11 0.0820449569) x13) (or (<= (+ x13 0.2681052911) x11) (or (>= (- y11 0.1995476485) y13) (or (>= (- y13 0.145351642) y11))))) 
(and (or (<= (+ x11 0.0820449569) x14) (or (<= (+ x14 0.7855995674) x11) (or (>= (- y11 0.1995476485) y14) (or (>= (- y14 0.0725243686) y11))))) 
(and (or (<= (+ x12 0.1710799512) x13) (or (<= (+ x13 0.2681052911) x12) (or (>= (- y12 0.1933476533) y13) (or (>= (- y13 0.145351642) y12))))) 
(and (or (<= (+ x12 0.1710799512) x14) (or (<= (+ x14 0.7855995674) x12) (or (>= (- y12 0.1933476533) y14) (or (>= (- y14 0.0725243686) y12))))) 
(and (or (<= (+ x13 0.2681052911) x14) (or (<= (+ x14 0.7855995674) x13) (or (>= (- y13 0.145351642) y14) (or (>= (- y14 0.0725243686) y13))))) )))))))))))))))))))))))))))))))))))))))))))))))))))))))))))))))))))))))))))))))))))))))))))))))))))))))))))))))))))))))))))))))))))))))))))))))))))))))))))))))))))))))))))))))))))))))))))))))))))))))))))))))))))))))
(minimize c)
(check-sat)
(get-objectives)
(exit)
